c description: Random 3-CNF over 24 variables and 102 clauses
c generator: CNFgen (0.9.2)
c copyright: (C) 2012-2022 Massimo Lauria <massimo.lauria@uniroma1.it>
c url: https://massimolauria.net/cnfgen
c command line: cnfgen --output CNF_4.28/24_bit_102_839.cnf randkcnf 3 24 102
c
p cnf 24 102
3 6 15 0
-2 9 -18 0
-6 13 19 0
12 23 -24 0
-1 7 -19 0
-8 -9 -23 0
3 -4 -19 0
-5 9 -20 0
-3 -6 -7 0
11 20 -24 0
-1 -4 -8 0
-11 20 24 0
-5 15 19 0
1 -7 8 0
-3 -5 -20 0
8 14 21 0
-7 -10 -17 0
7 8 11 0
-1 -11 20 0
1 4 19 0
-11 -12 -18 0
7 -12 15 0
-1 6 -8 0
1 -17 24 0
-6 7 -21 0
-1 5 18 0
-9 18 -23 0
3 -14 24 0
-2 4 6 0
-4 -9 22 0
-4 7 19 0
15 -17 -22 0
2 18 24 0
-3 18 23 0
-6 -7 23 0
-3 -7 8 0
3 4 -16 0
3 -6 21 0
2 14 -15 0
-21 -22 -24 0
4 5 20 0
5 13 16 0
4 7 -19 0
5 -17 -19 0
6 -10 23 0
3 14 -21 0
8 9 21 0
-2 -9 19 0
6 -8 -23 0
3 4 13 0
5 11 21 0
2 16 19 0
2 -7 19 0
6 -10 -21 0
10 22 -24 0
-10 -14 -15 0
-1 -7 -16 0
7 -15 20 0
-5 8 18 0
8 -15 -23 0
-2 19 24 0
-4 -10 -16 0
6 -15 23 0
3 7 14 0
2 -9 -24 0
9 14 -16 0
-4 21 24 0
-5 18 23 0
1 11 -17 0
-5 6 -12 0
-2 10 -14 0
-1 8 15 0
-14 -18 -21 0
12 -17 -20 0
1 -9 10 0
2 -9 14 0
-6 -10 -22 0
-12 18 20 0
-10 -17 -18 0
1 5 20 0
-3 21 -24 0
-12 14 -21 0
-7 -13 24 0
2 8 -13 0
-14 -15 -20 0
-3 13 21 0
2 -8 22 0
-3 7 12 0
13 -15 -21 0
1 13 22 0
-8 14 -16 0
10 15 -23 0
-4 -6 -19 0
13 15 23 0
5 -6 22 0
1 9 -19 0
-2 -10 14 0
1 8 -24 0
-7 -16 -17 0
-4 -5 18 0
3 -13 -17 0
-10 -11 13 0
